Primitive
3.6
0 0.5 0.5
0.5 0 0.5
0.5 0.5 0
Fe
1
Cartesian
0 0 0






