str_in
1.0
   1.8000000000000000    0.0000000000000000    1.8000000000000000
   1.8000000000000000    1.8000000000000000    0.0000000000000000
   0.0000000000000000    1.8000000000000000    1.8000000000000000
1 1 1
direct
   0 0 0 Fe Ni Cr
   0 0.25 0.25 H
   0.1 0.2 0.3 H
