Fe1
1.0
   1.8000000000000000    0.0000000000000000    1.8000000000000000
   1.8000000000000000    1.8000000000000000    0.0000000000000000
   0.0000000000000000    1.8000000000000000    1.8000000000000000
Fe
1
direct
   1.0000000000000000    1.0000000000000000    1.0000000000000000 Fe Ni Cr
   0.5 0.5 0.5 Ni Mn In
